\ Model Master Problem
\ LP format - for model browsing. Use MPS format to capture full model detail.
Maximize
 
Subject To
 tech_type_1_time_window_1_availability: <= 0
 tech_type_2_time_window_1_availability: <= 0
 tech_type_1_time_window_2_availability: <= 0
 tech_type_2_time_window_2_availability: <= 0
 tech_type_1_time_window_3_availability: <= 0
 tech_type_2_time_window_3_availability: <= 0
Bounds
End
